32      4       
11      14      19      20      
0       0       0       0       0       2       2       15      
1       5       0       9       0       1       3       
8       0       0       19      6       1       4       
1       7       0       8       0       1       5       
2       0       5       14      0       1       6       
2       0       6       1       0       1       7       
9       0       14      4       0       2       8       19      
3       8       6       0       0       1       9       
9       0       10      0       13      1       10      
4       1       0       1       0       2       11      31      
2       0       0       5       16      1       12      
2       1       0       14      0       1       13      
6       0       12      10      0       2       14      30      
6       0       14      0       13      3       16      28      29      
6       7       0       0       5       4       18      28      29      30      
8       8       1       0       0       2       17      24      
6       0       3       0       13      1       18      
1       3       10      0       0       3       20      26      27      
10      0       0       19      13      2       20      26      
9       6       12      0       0       1       21      
10      6       0       0       20      1       22      
10      9       0       0       10      1       23      
5       7       3       0       0       1       25      
5       0       4       0       3       1       26      
2       0       0       6       5       1       32      
4       0       1       0       3       1       32      
5       4       0       7       0       1       32      
3       2       0       0       1       1       32      
8       0       0       17      20      1       32      
10      9       0       9       0       1       32      
4       0       4       0       9       1       32      
0       0       0       0       0       0       
